-2 -1
-2 -2
1 -5
2 -8
4 -11
6 -17
6 -20
11 -25
12 -29
18 -34
21 -38
29 -44
35 -48
41 -53
48 -57
55 -60
59 -63
63 -65
70 -68
112 -111
122 -125
126 -128
137 -140
143 -147
149 -152
153 -154
156 -156
161 -158
165 -160
173 -161
141 -144
133 -136
129 -133
118 -121
116 -117
114 -113
109 -105
107 -102
105 -96
103 -94
100 -88
97 -84
96 -80
94 -78
90 -74
87 -73
85 -70
79 -69
74 -68
1 -4
